1985862
174,91,201,99,53,105,218,40,120,179,15,155,229,122,83,159,97,197,167,212,196,48,66,134,70,117,182,228,101,33,116,21,90,25,191,209,207,68,119,222,175,56,14,63,43,208,29,190,10,0,73,139,38,126,28,213,100,95,200,58,84,85,5,224,7,138,205,172,69,47,188,72,123,181,146,42,82,162,158,144,133,177,30,2,35,71,31,156,49,86,115,150,54,74,129,39,154,132,111,6,143,165,67,168,93,26,77,8,62,137,112,131,148,166,59,16,46,199,64,24,79,51,94,57,164,184,96,151,18,19,183,178,193,210,78,113,220,110,124,36,80,61,34,107,27,195,160,214,106,204,88,161,206,121,75,22,41,226,9,50,176,225,147,173,118,198,114,1,44,37,32,216,141,169,87,108,152,186,145,223,227,20,3,89,185,149,170,128,11,102,81,60,142,4,136,180,130,194,125,192,217,92,187,109,163,202,103,203,171,45,135,153,211,219,12,13,221,127,140,157,76,98,23,189,65,17,55,104,52,215
